\ LP format - for model browsing. Use MPS format to capture full model detail.
Minimize
  0 B18(0) + 0 B28(0) + 0 B31(0) + 0 B35(0) + 0 B38(0) + 0 B45(0) + 0 B46(0)
   + 0 B47(0) + 0 B48(0) + 0 B54(0) + 0 B55(0) + 0 B56(0) + 0 B58(0)
   + 0 B61(0) + 0 B63(0) + 0 B64(0) + 0 B65(0) + 0 B68(0) + 0 B72(0)
   + 0 B73(0) + 0 B74(0) + 0 B75(0) + 0 B76(0) + 0 B77(0) + 0 B78(0)
   + 0 B81(0) + 0 B82(0) + 0 B83(0) + 0 B84(0) + 0 B85(0) + 0 B86(0)
   + 0 B88(0) + 0 B89(0) + 0 B90(0) + 0 B91(0) + 0 B92(0) + 0 B93(0)
   + 0 B94(0) + 0 B95(0) + 0 B97(0) + 0 B98(0) + I117(1)
Subject To
 c0: B0(21) + B1(15) = 1
 c1: B2(5) + B3(19) = 1
 c2: B4(20) + B5(14) = 1
 c3: B6(19) + B7(15) = 1
 c4: B8(14) + B9(12) = 1
 c5: B10(17) + B11(13) = 1
 c6: B12(19) + B13(15) = 1
 c7: B14(5) + B15(17) = 1
 c8: B16(9) + B17(13) = 1
 c9: - 1e+06 B0(21) + C99(23) <= 0
 c10: - 1e+06 B1(15) + C100(17) <= 0
 c11: - 1e+06 B2(5) + C101(7) <= 0
 c12: - 1e+06 B3(19) + C102(21) <= 0
 c13: - 1e+06 B4(20) + C103(20) <= 0
 c14: - 1e+06 B5(14) + C104(14) <= 0
 c15: - 1e+06 B6(19) + C105(22) <= 0
 c16: - 1e+06 B7(15) + C106(18) <= 0
 c17: - 1e+06 B8(14) + C107(14) <= 0
 c18: - 1e+06 B9(12) + C108(12) <= 0
 c19: - 1e+06 B10(17) + C109(18) <= 0
 c20: - 1e+06 B11(13) + C110(14) <= 0
 c21: - 1e+06 B12(19) + C111(22) <= 0
 c22: - 1e+06 B13(15) + C112(18) <= 0
 c23: - 1e+06 B14(5) + C113(6) <= 0
 c24: - 1e+06 B15(17) + C114(18) <= 0
 c25: - 1e+06 B16(9) + C115(10) <= 0
 c26: - 1e+06 B17(13) + C116(14) <= 0
 c27: - 1e+06 B0(21) - 1e+06 B3(19) - 1e+06 B19(2) + C99(23) - C102(21)
   >= -2.999978e+06
 c28: - 1e+06 B0(21) - 1e+06 B3(19) + 1e+06 B19(2) - C99(23) + C102(21)
   >= -1.99999e+06
 c29: - 1e+06 B0(21) - 1e+06 B4(20) - 1e+06 B20(4) + C99(23) - C103(20)
   >= -2.999991e+06
 c30: - 1e+06 B0(21) - 1e+06 B4(20) + 1e+06 B20(4) - C99(23) + C103(20)
   >= -1.99999e+06
 c31: - 1e+06 B1(15) - 1e+06 B5(14) - 1e+06 B20(4) + C100(17) - C104(14)
   >= -2.999991e+06
 c32: - 1e+06 B1(15) - 1e+06 B5(14) + 1e+06 B20(4) - C100(17) + C104(14)
   >= -1.999991e+06
 c33: - 1e+06 B0(21) - 1e+06 B6(19) - 1e+06 B21(2) + C99(23) - C105(22)
   >= -2.999993e+06
 c34: - 1e+06 B0(21) - 1e+06 B6(19) + 1e+06 B21(2) - C99(23) + C105(22)
   >= -1.999971e+06
 c35: - 1e+06 B1(15) - 1e+06 B9(12) - 1e+06 B22(2) + C100(17) - C108(12)
   >= -2.99999e+06
 c36: - 1e+06 B1(15) - 1e+06 B9(12) + 1e+06 B22(2) - C100(17) + C108(12)
   >= -1.999995e+06
 c37: - 1e+06 B0(21) - 1e+06 B10(17) - 1e+06 B23(2) + C99(23) - C109(18)
   >= -2.999992e+06
 c38: - 1e+06 B0(21) - 1e+06 B10(17) + 1e+06 B23(2) - C99(23) + C109(18)
   >= -1.999981e+06
 c39: - 1e+06 B0(21) - 1e+06 B12(19) - 1e+06 B24(4) + C99(23) - C111(22)
   >= -2.999975e+06
 c40: - 1e+06 B0(21) - 1e+06 B12(19) + 1e+06 B24(4) - C99(23) + C111(22)
   >= -1.999992e+06
 c41: - 1e+06 B1(15) - 1e+06 B13(15) - 1e+06 B24(4) + C100(17) - C112(18)
   >= -2.999981e+06
 c42: - 1e+06 B1(15) - 1e+06 B13(15) + 1e+06 B24(4) - C100(17) + C112(18)
   >= -1.999977e+06
 c43: - 1e+06 B0(21) - 1e+06 B15(17) - 1e+06 B25(2) + C99(23) - C114(18)
   >= -2.99999e+06
 c44: - 1e+06 B0(21) - 1e+06 B15(17) + 1e+06 B25(2) - C99(23) + C114(18)
   >= -1.999992e+06
 c45: - 1e+06 B1(15) - 1e+06 B17(13) - 1e+06 B26(2) + C100(17) - C116(14)
   >= -2.999987e+06
 c46: - 1e+06 B1(15) - 1e+06 B17(13) + 1e+06 B26(2) - C100(17) + C116(14)
   >= -1.999982e+06
 c47: - 1e+06 B0(21) - 1e+06 B3(19) - 1e+06 B27(2) - C99(23) + C102(21)
   >= -2.99999e+06
 c48: - 1e+06 B0(21) - 1e+06 B3(19) + 1e+06 B27(2) + C99(23) - C102(21)
   >= -1.999978e+06
 c49: - 1e+06 B3(19) - 1e+06 B4(20) - 1e+06 B29(2) + C102(21) - C103(20)
   >= -2.999975e+06
 c50: - 1e+06 B3(19) - 1e+06 B4(20) + 1e+06 B29(2) - C102(21) + C103(20)
   >= -1.999989e+06
 c51: - 1e+06 B3(19) - 1e+06 B6(19) - 1e+06 B30(2) + C102(21) - C105(22)
   >= -2.999987e+06
 c52: - 1e+06 B3(19) - 1e+06 B6(19) + 1e+06 B30(2) - C102(21) + C105(22)
   >= -1.999989e+06
 c53: - 1e+06 B3(19) - 1e+06 B10(17) - 1e+06 B32(2) + C102(21) - C109(18)
   >= -2.999995e+06
 c54: - 1e+06 B3(19) - 1e+06 B10(17) + 1e+06 B32(2) - C102(21) + C109(18)
   >= -1.999992e+06
 c55: - 1e+06 B3(19) - 1e+06 B12(19) - 1e+06 B33(2) + C102(21) - C111(22)
   >= -2.999986e+06
 c56: - 1e+06 B3(19) - 1e+06 B12(19) + 1e+06 B33(2) - C102(21) + C111(22)
   >= -1.999994e+06
 c57: - 1e+06 B2(5) - 1e+06 B14(5) - 1e+06 B34(4) + C101(7) - C113(6)
   >= -2.999995e+06
 c58: - 1e+06 B2(5) - 1e+06 B14(5) + 1e+06 B34(4) - C101(7) + C113(6)
   >= -1.99999e+06
 c59: - 1e+06 B3(19) - 1e+06 B15(17) - 1e+06 B34(4) + C102(21) - C114(18)
   >= -2.999989e+06
 c60: - 1e+06 B3(19) - 1e+06 B15(17) + 1e+06 B34(4) - C102(21) + C114(18)
   >= -1.999995e+06
 c61: - 1e+06 B0(21) - 1e+06 B4(20) - 1e+06 B36(4) - C99(23) + C103(20)
   >= -2.99999e+06
 c62: - 1e+06 B0(21) - 1e+06 B4(20) + 1e+06 B36(4) + C99(23) - C103(20)
   >= -1.999991e+06
 c63: - 1e+06 B1(15) - 1e+06 B5(14) - 1e+06 B36(4) - C100(17) + C104(14)
   >= -2.999991e+06
 c64: - 1e+06 B1(15) - 1e+06 B5(14) + 1e+06 B36(4) + C100(17) - C104(14)
   >= -1.999991e+06
 c65: - 1e+06 B3(19) - 1e+06 B4(20) - 1e+06 B37(2) - C102(21) + C103(20)
   >= -2.999989e+06
 c66: - 1e+06 B3(19) - 1e+06 B4(20) + 1e+06 B37(2) + C102(21) - C103(20)
   >= -1.999975e+06
 c67: - 1e+06 B4(20) - 1e+06 B6(19) - 1e+06 B39(2) + C103(20) - C105(22)
   >= -2.999981e+06
 c68: - 1e+06 B4(20) - 1e+06 B6(19) + 1e+06 B39(2) - C103(20) + C105(22)
   >= -1.999975e+06
 c69: - 1e+06 B5(14) - 1e+06 B9(12) - 1e+06 B40(2) + C104(14) - C108(12)
   >= -2.999991e+06
 c70: - 1e+06 B5(14) - 1e+06 B9(12) + 1e+06 B40(2) - C104(14) + C108(12)
   >= -1.999976e+06
 c71: - 1e+06 B4(20) - 1e+06 B10(17) - 1e+06 B41(2) + C103(20) - C109(18)
   >= -2.999985e+06
 c72: - 1e+06 B4(20) - 1e+06 B10(17) + 1e+06 B41(2) - C103(20) + C109(18)
   >= -1.999989e+06
 c73: - 1e+06 B4(20) - 1e+06 B12(19) - 1e+06 B42(4) + C103(20) - C111(22)
   >= -2.999985e+06
 c74: - 1e+06 B4(20) - 1e+06 B12(19) + 1e+06 B42(4) - C103(20) + C111(22)
   >= -1.999989e+06
 c75: - 1e+06 B5(14) - 1e+06 B13(15) - 1e+06 B42(4) + C104(14) - C112(18)
   >= -2.999988e+06
 c76: - 1e+06 B5(14) - 1e+06 B13(15) + 1e+06 B42(4) - C104(14) + C112(18)
   >= -1.99998e+06
 c77: - 1e+06 B4(20) - 1e+06 B15(17) - 1e+06 B43(2) + C103(20) - C114(18)
   >= -2.999992e+06
 c78: - 1e+06 B4(20) - 1e+06 B15(17) + 1e+06 B43(2) - C103(20) + C114(18)
   >= -1.999989e+06
 c79: - 1e+06 B5(14) - 1e+06 B17(13) - 1e+06 B44(2) + C104(14) - C116(14)
   >= -2.999986e+06
 c80: - 1e+06 B5(14) - 1e+06 B17(13) + 1e+06 B44(2) - C104(14) + C116(14)
   >= -1.999992e+06
 c81: - 1e+06 B7(15) - 1e+06 B8(14) - 1e+06 B49(2) + C106(18) - C107(14)
   >= -2.999991e+06
 c82: - 1e+06 B7(15) - 1e+06 B8(14) + 1e+06 B49(2) - C106(18) + C107(14)
   >= -1.999996e+06
 c83: - 1e+06 B6(19) - 1e+06 B10(17) - 1e+06 B50(4) + C105(22) - C109(18)
   >= -2.999985e+06
 c84: - 1e+06 B6(19) - 1e+06 B10(17) + 1e+06 B50(4) - C105(22) + C109(18)
   >= -1.999994e+06
 c85: - 1e+06 B7(15) - 1e+06 B11(13) - 1e+06 B50(4) + C106(18) - C110(14)
   >= -2.999983e+06
 c86: - 1e+06 B7(15) - 1e+06 B11(13) + 1e+06 B50(4) - C106(18) + C110(14)
   >= -1.999994e+06
 c87: - 1e+06 B6(19) - 1e+06 B12(19) - 1e+06 B51(2) + C105(22) - C111(22)
   >= -2.999989e+06
 c88: - 1e+06 B6(19) - 1e+06 B12(19) + 1e+06 B51(2) - C105(22) + C111(22)
   >= -1.999988e+06
 c89: - 1e+06 B6(19) - 1e+06 B15(17) - 1e+06 B52(2) + C105(22) - C114(18)
   >= -2.999978e+06
 c90: - 1e+06 B6(19) - 1e+06 B15(17) + 1e+06 B52(2) - C105(22) + C114(18)
   >= -1.99999e+06
 c91: - 1e+06 B7(15) - 1e+06 B16(9) - 1e+06 B53(2) + C106(18) - C115(10)
   >= -2.999978e+06
 c92: - 1e+06 B7(15) - 1e+06 B16(9) + 1e+06 B53(2) - C106(18) + C115(10)
   >= -1.999996e+06
 c93: - 1e+06 B7(15) - 1e+06 B8(14) - 1e+06 B57(2) - C106(18) + C107(14)
   >= -2.999996e+06
 c94: - 1e+06 B7(15) - 1e+06 B8(14) + 1e+06 B57(2) + C106(18) - C107(14)
   >= -1.999991e+06
 c95: - 1e+06 B8(14) - 1e+06 B11(13) - 1e+06 B59(2) + C107(14) - C110(14)
   >= -2.999991e+06
 c96: - 1e+06 B8(14) - 1e+06 B11(13) + 1e+06 B59(2) - C107(14) + C110(14)
   >= -1.999989e+06
 c97: - 1e+06 B9(12) - 1e+06 B13(15) - 1e+06 B60(2) + C108(12) - C112(18)
   >= -2.999976e+06
 c98: - 1e+06 B9(12) - 1e+06 B13(15) + 1e+06 B60(2) - C108(12) + C112(18)
   >= -1.999992e+06
 c99: - 1e+06 B8(14) - 1e+06 B16(9) - 1e+06 B62(4) + C107(14) - C115(10)
   >= -2.999988e+06
 c100: - 1e+06 B8(14) - 1e+06 B16(9) + 1e+06 B62(4) - C107(14) + C115(10)
   >= -1.999983e+06
 c101: - 1e+06 B9(12) - 1e+06 B17(13) - 1e+06 B62(4) + C108(12) - C116(14)
   >= -2.99999e+06
 c102: - 1e+06 B9(12) - 1e+06 B17(13) + 1e+06 B62(4) - C108(12) + C116(14)
   >= -1.999984e+06
 c103: - 1e+06 B6(19) - 1e+06 B10(17) - 1e+06 B66(4) - C105(22) + C109(18)
   >= -2.999994e+06
 c104: - 1e+06 B6(19) - 1e+06 B10(17) + 1e+06 B66(4) + C105(22) - C109(18)
   >= -1.999985e+06
 c105: - 1e+06 B7(15) - 1e+06 B11(13) - 1e+06 B66(4) - C106(18) + C110(14)
   >= -2.999994e+06
 c106: - 1e+06 B7(15) - 1e+06 B11(13) + 1e+06 B66(4) + C106(18) - C110(14)
   >= -1.999983e+06
 c107: - 1e+06 B8(14) - 1e+06 B11(13) - 1e+06 B67(2) - C107(14) + C110(14)
   >= -2.999989e+06
 c108: - 1e+06 B8(14) - 1e+06 B11(13) + 1e+06 B67(2) + C107(14) - C110(14)
   >= -1.999991e+06
 c109: - 1e+06 B10(17) - 1e+06 B12(19) - 1e+06 B69(2) + C109(18) - C111(22)
   >= -2.999989e+06
 c110: - 1e+06 B10(17) - 1e+06 B12(19) + 1e+06 B69(2) - C109(18) + C111(22)
   >= -1.999992e+06
 c111: - 1e+06 B10(17) - 1e+06 B15(17) - 1e+06 B70(2) + C109(18) - C114(18)
   >= -2.999973e+06
 c112: - 1e+06 B10(17) - 1e+06 B15(17) + 1e+06 B70(2) - C109(18) + C114(18)
   >= -1.999993e+06
 c113: - 1e+06 B11(13) - 1e+06 B16(9) - 1e+06 B71(2) + C110(14) - C115(10)
   >= -2.999986e+06
 c114: - 1e+06 B11(13) - 1e+06 B16(9) + 1e+06 B71(2) - C110(14) + C115(10)
   >= -1.999975e+06
 c115: - 1e+06 B12(19) - 1e+06 B15(17) - 1e+06 B79(2) + C111(22) - C114(18)
   >= -2.999993e+06
 c116: - 1e+06 B12(19) - 1e+06 B15(17) + 1e+06 B79(2) - C111(22) + C114(18)
   >= -1.999986e+06
 c117: - 1e+06 B13(15) - 1e+06 B17(13) - 1e+06 B80(2) + C112(18) - C116(14)
   >= -2.999987e+06
 c118: - 1e+06 B13(15) - 1e+06 B17(13) + 1e+06 B80(2) - C112(18) + C116(14)
   >= -1.999981e+06
 c119: - 1e+06 B12(19) - 1e+06 B15(17) - 1e+06 B87(2) - C111(22) + C114(18)
   >= -2.999986e+06
 c120: - 1e+06 B12(19) - 1e+06 B15(17) + 1e+06 B87(2) + C111(22) - C114(18)
   >= -1.999993e+06
 c121: - 1e+06 B13(15) - 1e+06 B17(13) - 1e+06 B96(2) - C112(18) + C116(14)
   >= -2.999981e+06
 c122: - 1e+06 B13(15) - 1e+06 B17(13) + 1e+06 B96(2) + C112(18) - C116(14)
   >= -1.999987e+06
 c123: C99(23) >= 0
 c124: - B0(21) + C99(23) >= 0
 c125: C100(17) >= 0
 c126: - B1(15) + C100(17) >= 0
 c127: C101(7) >= 0
 c128: C101(7) >= 0
 c129: C102(21) >= 0
 c130: C102(21) >= 0
 c131: C103(20) >= 0
 c132: - 3 B4(20) + C103(20) >= 0
 c133: C104(14) >= 0
 c134: - 3 B5(14) + C104(14) >= 0
 c135: C105(22) >= 0
 c136: - 3 B6(19) + C105(22) >= 0
 c137: C106(18) >= 0
 c138: - 3 B7(15) + C106(18) >= 0
 c139: C107(14) >= 0
 c140: - 2 B8(14) + C107(14) >= 0
 c141: C108(12) >= 0
 c142: - 2 B9(12) + C108(12) >= 0
 c143: C109(18) >= 0
 c144: C109(18) >= 0
 c145: C110(14) >= 0
 c146: C110(14) >= 0
 c147: C111(22) >= 0
 c148: - B12(19) + C111(22) >= 0
 c149: C112(18) >= 0
 c150: - B13(15) + C112(18) >= 0
 c151: C113(6) >= 0
 c152: C113(6) >= 0
 c153: C114(18) >= 0
 c154: C114(18) >= 0
 c155: C115(10) >= 0
 c156: C115(10) >= 0
 c157: C116(14) >= 0
 c158: C116(14) >= 0
 c159: - 2 B2(5) - 2 B3(19) + C99(23) + C100(17) - C101(7) - C102(21) >= 0
 c160: - 5 B4(20) - 4 B5(14) + C101(7) + C102(21) - C103(20) - C104(14)
   >= 0
 c161: - 5 B8(14) - 4 B9(12) + C105(22) + C106(18) - C107(14) - C108(12)
   >= 0
 c162: - 3 B10(17) - 5 B11(13) + C105(22) + C106(18) - C109(18) - C110(14)
   >= 0
 c163: - 2 B14(5) - 2 B15(17) + C111(22) + C112(18) - C113(6) - C114(18)
   >= 0
 c164: - 2 B16(9) - 5 B17(13) + C111(22) + C112(18) - C115(10) - C116(14)
   >= 0
 c165: 4 B0(21) + C99(23) - 1e+06 B118(4) >= -999994
 c166: 4 B0(21) + C99(23) - 1e+06 B118(4) <= 6
 c167: 3 B1(15) + C100(17) - 1e+06 B119(4) >= -999994
 c168: 3 B1(15) + C100(17) - 1e+06 B119(4) <= 6
 c169: 4 B6(19) + C105(22) - 1e+06 B120(4) >= -999991
 c170: 4 B6(19) + C105(22) - 1e+06 B120(4) <= 9
 c171: 2 B7(15) + C106(18) - 1e+06 B121(4) >= -999991
 c172: 2 B7(15) + C106(18) - 1e+06 B121(4) <= 9
 c173: 5 B12(19) + C111(22) - 1e+06 B122(4) >= -999994
 c174: 5 B12(19) + C111(22) - 1e+06 B122(4) <= 6
 c175: 4 B13(15) + C112(18) - 1e+06 B123(4) >= -999994
 c176: 4 B13(15) + C112(18) - 1e+06 B123(4) <= 6
 qc0: I117(1) + 2 B118(4) + 3 B119(4) + 5 B120(4) + 7 B121(4) + B122(4)
   + 2 B123(4) + [ - C99(23) * B118(4) - C100(17) * B119(4)
   - C105(22) * B120(4) - C106(18) * B121(4) - C111(22) * B122(4)
   - C112(18) * B123(4) ] >= 0
Bounds
Binaries
 B0(21) B1(15) B2(5) B3(19) B4(20) B5(14) B6(19) B7(15) B8(14) B9(12)
 B10(17) B11(13) B12(19) B13(15) B14(5) B15(17) B16(9) B17(13) B18(0)
 B19(2) B20(4) B21(2) B22(2) B23(2) B24(4) B25(2) B26(2) B27(2) B28(0)
 B29(2) B30(2) B31(0) B32(2) B33(2) B34(4) B35(0) B36(4) B37(2) B38(0)
 B39(2) B40(2) B41(2) B42(4) B43(2) B44(2) B45(0) B46(0) B47(0) B48(0)
 B49(2) B50(4) B51(2) B52(2) B53(2) B54(0) B55(0) B56(0) B57(2) B58(0)
 B59(2) B60(2) B61(0) B62(4) B63(0) B64(0) B65(0) B66(4) B67(2) B68(0)
 B69(2) B70(2) B71(2) B72(0) B73(0) B74(0) B75(0) B76(0) B77(0) B78(0)
 B79(2) B80(2) B81(0) B82(0) B83(0) B84(0) B85(0) B86(0) B87(2) B88(0)
 B89(0) B90(0) B91(0) B92(0) B93(0) B94(0) B95(0) B96(2) B97(0) B98(0)
 B118(4) B119(4) B120(4) B121(4) B122(4) B123(4)
Generals
 I117(1)
End
